c Random generated cnf formula, satisfiable: false
p cnf 10 50
1 -7 3 0
-1 10 7 0
4 -8 -7 0
2 1 6 0
-9 1 2 0
-4 -5 -9 0
5 3 -10 0
5 8 1 0
3 -4 9 0
-3 10 -6 0
-9 10 8 0
-3 -10 -8 0
-8 -5 2 0
10 6 9 0
-10 6 -8 0
9 -10 -8 0
-4 -6 8 0
-9 -1 3 0
-5 -10 -7 0
3 1 4 0
4 10 5 0
6 -8 -4 0
9 4 -5 0
7 -3 -9 0
7 8 5 0
9 3 5 0
1 7 -8 0
-10 8 -9 0
-3 -8 5 0
8 4 -6 0
-9 -6 -8 0
1 3 8 0
10 -9 6 0
10 -4 -5 0
-7 2 6 0
-3 1 8 0
-10 3 4 0
-10 -5 6 0
-4 5 8 0
10 2 -4 0
9 4 -6 0
10 9 -5 0
3 5 -10 0
-10 -3 -9 0
-5 3 4 0
6 7 10 0
1 9 -8 0
5 8 9 0
-1 6 -5 0
9 -8 -6 0
